% Auto-generated by scripts/generate_dzn.py
% problem_type   = polyominoes
% instance       = polyominoes_39
% source_json    = instances_json/0_low_blowup/polyominoes_39.json
% blowup         = 1.0769230769230769
% representation = NFA

mode = 1;

size = 4;
tiles = 12;
n_expressions = 12;
Q = 9;
S = 13;
q0 = [1, 1, 1, 1, 1, 1, 1, 1, 1, 1, 1, 1];
F = [{4}, {2}, {4}, {2}, {2}, {4}, {2}, {2}, {2}, {2}, {2}, {4}];
d_dfa = array3d(1..12, 1..9, 1..13, [
  % k = 1
    0, 0, 0, 0, 0, 0, 0, 0, 0, 0, 0, 0, 0,
    0, 0, 0, 0, 0, 0, 0, 0, 0, 0, 0, 0, 0,
    0, 0, 0, 0, 0, 0, 0, 0, 0, 0, 0, 0, 0,
    0, 0, 0, 0, 0, 0, 0, 0, 0, 0, 0, 0, 0,
    0, 0, 0, 0, 0, 0, 0, 0, 0, 0, 0, 0, 0,
    0, 0, 0, 0, 0, 0, 0, 0, 0, 0, 0, 0, 0,
    0, 0, 0, 0, 0, 0, 0, 0, 0, 0, 0, 0, 0,
    0, 0, 0, 0, 0, 0, 0, 0, 0, 0, 0, 0, 0,
    0, 0, 0, 0, 0, 0, 0, 0, 0, 0, 0, 0, 0,

  % k = 2
    0, 0, 0, 0, 0, 0, 0, 0, 0, 0, 0, 0, 0,
    0, 0, 0, 0, 0, 0, 0, 0, 0, 0, 0, 0, 0,
    0, 0, 0, 0, 0, 0, 0, 0, 0, 0, 0, 0, 0,
    0, 0, 0, 0, 0, 0, 0, 0, 0, 0, 0, 0, 0,
    0, 0, 0, 0, 0, 0, 0, 0, 0, 0, 0, 0, 0,
    0, 0, 0, 0, 0, 0, 0, 0, 0, 0, 0, 0, 0,
    0, 0, 0, 0, 0, 0, 0, 0, 0, 0, 0, 0, 0,
    0, 0, 0, 0, 0, 0, 0, 0, 0, 0, 0, 0, 0,
    0, 0, 0, 0, 0, 0, 0, 0, 0, 0, 0, 0, 0,

  % k = 3
    0, 0, 0, 0, 0, 0, 0, 0, 0, 0, 0, 0, 0,
    0, 0, 0, 0, 0, 0, 0, 0, 0, 0, 0, 0, 0,
    0, 0, 0, 0, 0, 0, 0, 0, 0, 0, 0, 0, 0,
    0, 0, 0, 0, 0, 0, 0, 0, 0, 0, 0, 0, 0,
    0, 0, 0, 0, 0, 0, 0, 0, 0, 0, 0, 0, 0,
    0, 0, 0, 0, 0, 0, 0, 0, 0, 0, 0, 0, 0,
    0, 0, 0, 0, 0, 0, 0, 0, 0, 0, 0, 0, 0,
    0, 0, 0, 0, 0, 0, 0, 0, 0, 0, 0, 0, 0,
    0, 0, 0, 0, 0, 0, 0, 0, 0, 0, 0, 0, 0,

  % k = 4
    0, 0, 0, 0, 0, 0, 0, 0, 0, 0, 0, 0, 0,
    0, 0, 0, 0, 0, 0, 0, 0, 0, 0, 0, 0, 0,
    0, 0, 0, 0, 0, 0, 0, 0, 0, 0, 0, 0, 0,
    0, 0, 0, 0, 0, 0, 0, 0, 0, 0, 0, 0, 0,
    0, 0, 0, 0, 0, 0, 0, 0, 0, 0, 0, 0, 0,
    0, 0, 0, 0, 0, 0, 0, 0, 0, 0, 0, 0, 0,
    0, 0, 0, 0, 0, 0, 0, 0, 0, 0, 0, 0, 0,
    0, 0, 0, 0, 0, 0, 0, 0, 0, 0, 0, 0, 0,
    0, 0, 0, 0, 0, 0, 0, 0, 0, 0, 0, 0, 0,

  % k = 5
    0, 0, 0, 0, 0, 0, 0, 0, 0, 0, 0, 0, 0,
    0, 0, 0, 0, 0, 0, 0, 0, 0, 0, 0, 0, 0,
    0, 0, 0, 0, 0, 0, 0, 0, 0, 0, 0, 0, 0,
    0, 0, 0, 0, 0, 0, 0, 0, 0, 0, 0, 0, 0,
    0, 0, 0, 0, 0, 0, 0, 0, 0, 0, 0, 0, 0,
    0, 0, 0, 0, 0, 0, 0, 0, 0, 0, 0, 0, 0,
    0, 0, 0, 0, 0, 0, 0, 0, 0, 0, 0, 0, 0,
    0, 0, 0, 0, 0, 0, 0, 0, 0, 0, 0, 0, 0,
    0, 0, 0, 0, 0, 0, 0, 0, 0, 0, 0, 0, 0,

  % k = 6
    0, 0, 0, 0, 0, 0, 0, 0, 0, 0, 0, 0, 0,
    0, 0, 0, 0, 0, 0, 0, 0, 0, 0, 0, 0, 0,
    0, 0, 0, 0, 0, 0, 0, 0, 0, 0, 0, 0, 0,
    0, 0, 0, 0, 0, 0, 0, 0, 0, 0, 0, 0, 0,
    0, 0, 0, 0, 0, 0, 0, 0, 0, 0, 0, 0, 0,
    0, 0, 0, 0, 0, 0, 0, 0, 0, 0, 0, 0, 0,
    0, 0, 0, 0, 0, 0, 0, 0, 0, 0, 0, 0, 0,
    0, 0, 0, 0, 0, 0, 0, 0, 0, 0, 0, 0, 0,
    0, 0, 0, 0, 0, 0, 0, 0, 0, 0, 0, 0, 0,

  % k = 7
    0, 0, 0, 0, 0, 0, 0, 0, 0, 0, 0, 0, 0,
    0, 0, 0, 0, 0, 0, 0, 0, 0, 0, 0, 0, 0,
    0, 0, 0, 0, 0, 0, 0, 0, 0, 0, 0, 0, 0,
    0, 0, 0, 0, 0, 0, 0, 0, 0, 0, 0, 0, 0,
    0, 0, 0, 0, 0, 0, 0, 0, 0, 0, 0, 0, 0,
    0, 0, 0, 0, 0, 0, 0, 0, 0, 0, 0, 0, 0,
    0, 0, 0, 0, 0, 0, 0, 0, 0, 0, 0, 0, 0,
    0, 0, 0, 0, 0, 0, 0, 0, 0, 0, 0, 0, 0,
    0, 0, 0, 0, 0, 0, 0, 0, 0, 0, 0, 0, 0,

  % k = 8
    0, 0, 0, 0, 0, 0, 0, 0, 0, 0, 0, 0, 0,
    0, 0, 0, 0, 0, 0, 0, 0, 0, 0, 0, 0, 0,
    0, 0, 0, 0, 0, 0, 0, 0, 0, 0, 0, 0, 0,
    0, 0, 0, 0, 0, 0, 0, 0, 0, 0, 0, 0, 0,
    0, 0, 0, 0, 0, 0, 0, 0, 0, 0, 0, 0, 0,
    0, 0, 0, 0, 0, 0, 0, 0, 0, 0, 0, 0, 0,
    0, 0, 0, 0, 0, 0, 0, 0, 0, 0, 0, 0, 0,
    0, 0, 0, 0, 0, 0, 0, 0, 0, 0, 0, 0, 0,
    0, 0, 0, 0, 0, 0, 0, 0, 0, 0, 0, 0, 0,

  % k = 9
    0, 0, 0, 0, 0, 0, 0, 0, 0, 0, 0, 0, 0,
    0, 0, 0, 0, 0, 0, 0, 0, 0, 0, 0, 0, 0,
    0, 0, 0, 0, 0, 0, 0, 0, 0, 0, 0, 0, 0,
    0, 0, 0, 0, 0, 0, 0, 0, 0, 0, 0, 0, 0,
    0, 0, 0, 0, 0, 0, 0, 0, 0, 0, 0, 0, 0,
    0, 0, 0, 0, 0, 0, 0, 0, 0, 0, 0, 0, 0,
    0, 0, 0, 0, 0, 0, 0, 0, 0, 0, 0, 0, 0,
    0, 0, 0, 0, 0, 0, 0, 0, 0, 0, 0, 0, 0,
    0, 0, 0, 0, 0, 0, 0, 0, 0, 0, 0, 0, 0,

  % k = 10
    0, 0, 0, 0, 0, 0, 0, 0, 0, 0, 0, 0, 0,
    0, 0, 0, 0, 0, 0, 0, 0, 0, 0, 0, 0, 0,
    0, 0, 0, 0, 0, 0, 0, 0, 0, 0, 0, 0, 0,
    0, 0, 0, 0, 0, 0, 0, 0, 0, 0, 0, 0, 0,
    0, 0, 0, 0, 0, 0, 0, 0, 0, 0, 0, 0, 0,
    0, 0, 0, 0, 0, 0, 0, 0, 0, 0, 0, 0, 0,
    0, 0, 0, 0, 0, 0, 0, 0, 0, 0, 0, 0, 0,
    0, 0, 0, 0, 0, 0, 0, 0, 0, 0, 0, 0, 0,
    0, 0, 0, 0, 0, 0, 0, 0, 0, 0, 0, 0, 0,

  % k = 11
    0, 0, 0, 0, 0, 0, 0, 0, 0, 0, 0, 0, 0,
    0, 0, 0, 0, 0, 0, 0, 0, 0, 0, 0, 0, 0,
    0, 0, 0, 0, 0, 0, 0, 0, 0, 0, 0, 0, 0,
    0, 0, 0, 0, 0, 0, 0, 0, 0, 0, 0, 0, 0,
    0, 0, 0, 0, 0, 0, 0, 0, 0, 0, 0, 0, 0,
    0, 0, 0, 0, 0, 0, 0, 0, 0, 0, 0, 0, 0,
    0, 0, 0, 0, 0, 0, 0, 0, 0, 0, 0, 0, 0,
    0, 0, 0, 0, 0, 0, 0, 0, 0, 0, 0, 0, 0,
    0, 0, 0, 0, 0, 0, 0, 0, 0, 0, 0, 0, 0,

  % k = 12
    0, 0, 0, 0, 0, 0, 0, 0, 0, 0, 0, 0, 0,
    0, 0, 0, 0, 0, 0, 0, 0, 0, 0, 0, 0, 0,
    0, 0, 0, 0, 0, 0, 0, 0, 0, 0, 0, 0, 0,
    0, 0, 0, 0, 0, 0, 0, 0, 0, 0, 0, 0, 0,
    0, 0, 0, 0, 0, 0, 0, 0, 0, 0, 0, 0, 0,
    0, 0, 0, 0, 0, 0, 0, 0, 0, 0, 0, 0, 0,
    0, 0, 0, 0, 0, 0, 0, 0, 0, 0, 0, 0, 0,
    0, 0, 0, 0, 0, 0, 0, 0, 0, 0, 0, 0, 0,
    0, 0, 0, 0, 0, 0, 0, 0, 0, 0, 0, 0, 0
]);
d_nfa = array3d(1..12, 1..9, 1..13, [
  % k = 1
    {3, 6}, {2, 5}, {2, 5}, {2, 5}, {2, 5}, {2, 5}, {2, 5}, {2, 5}, {2, 5}, {2, 5}, {2, 5}, {2, 5}, {2, 5},
    {3}, {2}, {2}, {2}, {2}, {2}, {2}, {2}, {2}, {2}, {2}, {2}, {2},
    {4}, {}, {}, {}, {}, {}, {}, {}, {}, {}, {}, {}, {},
    {}, {4}, {4}, {4}, {4}, {4}, {4}, {4}, {4}, {4}, {4}, {4}, {4},
    {6}, {5}, {5}, {5}, {5}, {5}, {5}, {5}, {5}, {5}, {5}, {5}, {5},
    {}, {7}, {7}, {7}, {7}, {7}, {7}, {7}, {7}, {7}, {7}, {7}, {7},
    {}, {8}, {8}, {8}, {8}, {8}, {8}, {8}, {8}, {8}, {8}, {8}, {8},
    {}, {9}, {9}, {9}, {9}, {9}, {9}, {9}, {9}, {9}, {9}, {9}, {9},
    {}, {3}, {3}, {3}, {3}, {3}, {3}, {3}, {3}, {3}, {3}, {3}, {3},

  % k = 2
    {1}, {2}, {1}, {1}, {1}, {1}, {1}, {1}, {1}, {1}, {1}, {1}, {1},
    {2}, {}, {2}, {2}, {2}, {2}, {2}, {2}, {2}, {2}, {2}, {2}, {2},
    {}, {}, {}, {}, {}, {}, {}, {}, {}, {}, {}, {}, {},
    {}, {}, {}, {}, {}, {}, {}, {}, {}, {}, {}, {}, {},
    {}, {}, {}, {}, {}, {}, {}, {}, {}, {}, {}, {}, {},
    {}, {}, {}, {}, {}, {}, {}, {}, {}, {}, {}, {}, {},
    {}, {}, {}, {}, {}, {}, {}, {}, {}, {}, {}, {}, {},
    {}, {}, {}, {}, {}, {}, {}, {}, {}, {}, {}, {}, {},
    {}, {}, {}, {}, {}, {}, {}, {}, {}, {}, {}, {}, {},

  % k = 3
    {2, 5}, {2, 5}, {3, 6}, {2, 5}, {2, 5}, {2, 5}, {2, 5}, {2, 5}, {2, 5}, {2, 5}, {2, 5}, {2, 5}, {2, 5},
    {2}, {2}, {3}, {2}, {2}, {2}, {2}, {2}, {2}, {2}, {2}, {2}, {2},
    {}, {}, {4}, {}, {}, {}, {}, {}, {}, {}, {}, {}, {},
    {4}, {4}, {}, {4}, {4}, {4}, {4}, {4}, {4}, {4}, {4}, {4}, {4},
    {5}, {5}, {6}, {5}, {5}, {5}, {5}, {5}, {5}, {5}, {5}, {5}, {5},
    {7}, {7}, {}, {7}, {7}, {7}, {7}, {7}, {7}, {7}, {7}, {7}, {7},
    {8}, {8}, {}, {8}, {8}, {8}, {8}, {8}, {8}, {8}, {8}, {8}, {8},
    {9}, {9}, {}, {9}, {9}, {9}, {9}, {9}, {9}, {9}, {9}, {9}, {9},
    {3}, {3}, {}, {3}, {3}, {3}, {3}, {3}, {3}, {3}, {3}, {3}, {3},

  % k = 4
    {1}, {1}, {1}, {2}, {1}, {1}, {1}, {1}, {1}, {1}, {1}, {1}, {1},
    {2}, {2}, {2}, {}, {2}, {2}, {2}, {2}, {2}, {2}, {2}, {2}, {2},
    {}, {}, {}, {}, {}, {}, {}, {}, {}, {}, {}, {}, {},
    {}, {}, {}, {}, {}, {}, {}, {}, {}, {}, {}, {}, {},
    {}, {}, {}, {}, {}, {}, {}, {}, {}, {}, {}, {}, {},
    {}, {}, {}, {}, {}, {}, {}, {}, {}, {}, {}, {}, {},
    {}, {}, {}, {}, {}, {}, {}, {}, {}, {}, {}, {}, {},
    {}, {}, {}, {}, {}, {}, {}, {}, {}, {}, {}, {}, {},
    {}, {}, {}, {}, {}, {}, {}, {}, {}, {}, {}, {}, {},

  % k = 5
    {1}, {1}, {1}, {1}, {2}, {1}, {1}, {1}, {1}, {1}, {1}, {1}, {1},
    {2}, {2}, {2}, {2}, {}, {2}, {2}, {2}, {2}, {2}, {2}, {2}, {2},
    {}, {}, {}, {}, {}, {}, {}, {}, {}, {}, {}, {}, {},
    {}, {}, {}, {}, {}, {}, {}, {}, {}, {}, {}, {}, {},
    {}, {}, {}, {}, {}, {}, {}, {}, {}, {}, {}, {}, {},
    {}, {}, {}, {}, {}, {}, {}, {}, {}, {}, {}, {}, {},
    {}, {}, {}, {}, {}, {}, {}, {}, {}, {}, {}, {}, {},
    {}, {}, {}, {}, {}, {}, {}, {}, {}, {}, {}, {}, {},
    {}, {}, {}, {}, {}, {}, {}, {}, {}, {}, {}, {}, {},

  % k = 6
    {2, 5}, {2, 5}, {2, 5}, {2, 5}, {2, 5}, {3, 6}, {2, 5}, {2, 5}, {2, 5}, {2, 5}, {2, 5}, {2, 5}, {2, 5},
    {2}, {2}, {2}, {2}, {2}, {3}, {2}, {2}, {2}, {2}, {2}, {2}, {2},
    {}, {}, {}, {}, {}, {4}, {}, {}, {}, {}, {}, {}, {},
    {4}, {4}, {4}, {4}, {4}, {}, {4}, {4}, {4}, {4}, {4}, {4}, {4},
    {5}, {5}, {5}, {5}, {5}, {6}, {5}, {5}, {5}, {5}, {5}, {5}, {5},
    {7}, {7}, {7}, {7}, {7}, {}, {7}, {7}, {7}, {7}, {7}, {7}, {7},
    {8}, {8}, {8}, {8}, {8}, {}, {8}, {8}, {8}, {8}, {8}, {8}, {8},
    {9}, {9}, {9}, {9}, {9}, {}, {9}, {9}, {9}, {9}, {9}, {9}, {9},
    {3}, {3}, {3}, {3}, {3}, {}, {3}, {3}, {3}, {3}, {3}, {3}, {3},

  % k = 7
    {1}, {1}, {1}, {1}, {1}, {1}, {2}, {1}, {1}, {1}, {1}, {1}, {1},
    {2}, {2}, {2}, {2}, {2}, {2}, {}, {2}, {2}, {2}, {2}, {2}, {2},
    {}, {}, {}, {}, {}, {}, {}, {}, {}, {}, {}, {}, {},
    {}, {}, {}, {}, {}, {}, {}, {}, {}, {}, {}, {}, {},
    {}, {}, {}, {}, {}, {}, {}, {}, {}, {}, {}, {}, {},
    {}, {}, {}, {}, {}, {}, {}, {}, {}, {}, {}, {}, {},
    {}, {}, {}, {}, {}, {}, {}, {}, {}, {}, {}, {}, {},
    {}, {}, {}, {}, {}, {}, {}, {}, {}, {}, {}, {}, {},
    {}, {}, {}, {}, {}, {}, {}, {}, {}, {}, {}, {}, {},

  % k = 8
    {1}, {1}, {1}, {1}, {1}, {1}, {1}, {2}, {1}, {1}, {1}, {1}, {1},
    {2}, {2}, {2}, {2}, {2}, {2}, {2}, {}, {2}, {2}, {2}, {2}, {2},
    {}, {}, {}, {}, {}, {}, {}, {}, {}, {}, {}, {}, {},
    {}, {}, {}, {}, {}, {}, {}, {}, {}, {}, {}, {}, {},
    {}, {}, {}, {}, {}, {}, {}, {}, {}, {}, {}, {}, {},
    {}, {}, {}, {}, {}, {}, {}, {}, {}, {}, {}, {}, {},
    {}, {}, {}, {}, {}, {}, {}, {}, {}, {}, {}, {}, {},
    {}, {}, {}, {}, {}, {}, {}, {}, {}, {}, {}, {}, {},
    {}, {}, {}, {}, {}, {}, {}, {}, {}, {}, {}, {}, {},

  % k = 9
    {1}, {1}, {1}, {1}, {1}, {1}, {1}, {1}, {2}, {1}, {1}, {1}, {1},
    {2}, {2}, {2}, {2}, {2}, {2}, {2}, {2}, {}, {2}, {2}, {2}, {2},
    {}, {}, {}, {}, {}, {}, {}, {}, {}, {}, {}, {}, {},
    {}, {}, {}, {}, {}, {}, {}, {}, {}, {}, {}, {}, {},
    {}, {}, {}, {}, {}, {}, {}, {}, {}, {}, {}, {}, {},
    {}, {}, {}, {}, {}, {}, {}, {}, {}, {}, {}, {}, {},
    {}, {}, {}, {}, {}, {}, {}, {}, {}, {}, {}, {}, {},
    {}, {}, {}, {}, {}, {}, {}, {}, {}, {}, {}, {}, {},
    {}, {}, {}, {}, {}, {}, {}, {}, {}, {}, {}, {}, {},

  % k = 10
    {1}, {1}, {1}, {1}, {1}, {1}, {1}, {1}, {1}, {2}, {1}, {1}, {1},
    {2}, {2}, {2}, {2}, {2}, {2}, {2}, {2}, {2}, {}, {2}, {2}, {2},
    {}, {}, {}, {}, {}, {}, {}, {}, {}, {}, {}, {}, {},
    {}, {}, {}, {}, {}, {}, {}, {}, {}, {}, {}, {}, {},
    {}, {}, {}, {}, {}, {}, {}, {}, {}, {}, {}, {}, {},
    {}, {}, {}, {}, {}, {}, {}, {}, {}, {}, {}, {}, {},
    {}, {}, {}, {}, {}, {}, {}, {}, {}, {}, {}, {}, {},
    {}, {}, {}, {}, {}, {}, {}, {}, {}, {}, {}, {}, {},
    {}, {}, {}, {}, {}, {}, {}, {}, {}, {}, {}, {}, {},

  % k = 11
    {1}, {1}, {1}, {1}, {1}, {1}, {1}, {1}, {1}, {1}, {2}, {1}, {1},
    {2}, {2}, {2}, {2}, {2}, {2}, {2}, {2}, {2}, {2}, {}, {2}, {2},
    {}, {}, {}, {}, {}, {}, {}, {}, {}, {}, {}, {}, {},
    {}, {}, {}, {}, {}, {}, {}, {}, {}, {}, {}, {}, {},
    {}, {}, {}, {}, {}, {}, {}, {}, {}, {}, {}, {}, {},
    {}, {}, {}, {}, {}, {}, {}, {}, {}, {}, {}, {}, {},
    {}, {}, {}, {}, {}, {}, {}, {}, {}, {}, {}, {}, {},
    {}, {}, {}, {}, {}, {}, {}, {}, {}, {}, {}, {}, {},
    {}, {}, {}, {}, {}, {}, {}, {}, {}, {}, {}, {}, {},

  % k = 12
    {2, 5}, {2, 5}, {2, 5}, {2, 5}, {2, 5}, {2, 5}, {2, 5}, {2, 5}, {2, 5}, {2, 5}, {2, 5}, {3, 6}, {2, 5},
    {2}, {2}, {2}, {2}, {2}, {2}, {2}, {2}, {2}, {2}, {2}, {3}, {2},
    {}, {}, {}, {}, {}, {}, {}, {}, {}, {}, {}, {4}, {},
    {4}, {4}, {4}, {4}, {4}, {4}, {4}, {4}, {4}, {4}, {4}, {}, {4},
    {5}, {5}, {5}, {5}, {5}, {5}, {5}, {5}, {5}, {5}, {5}, {6}, {5},
    {7}, {7}, {7}, {7}, {7}, {7}, {7}, {7}, {7}, {7}, {7}, {}, {7},
    {8}, {8}, {8}, {8}, {8}, {8}, {8}, {8}, {8}, {8}, {8}, {}, {8},
    {9}, {9}, {9}, {9}, {9}, {9}, {9}, {9}, {9}, {9}, {9}, {}, {9},
    {3}, {3}, {3}, {3}, {3}, {3}, {3}, {3}, {3}, {3}, {3}, {}, {3}
]);
